Automatic mesh
0
Gamma
21  21  21
0.0 0.0 0.0
