KPOINTS forming the path LGXU,KG
82
Reciprocal
0.500000 0.500000 0.500000 1.0 
0.476190 0.476190 0.476190 1.0 
0.452381 0.452381 0.452381 1.0 
0.428571 0.428571 0.428571 1.0 
0.404762 0.404762 0.404762 1.0 
0.380952 0.380952 0.380952 1.0 
0.357143 0.357143 0.357143 1.0 
0.333333 0.333333 0.333333 1.0 
0.309524 0.309524 0.309524 1.0 
0.285714 0.285714 0.285714 1.0 
0.261905 0.261905 0.261905 1.0 
0.238095 0.238095 0.238095 1.0 
0.214286 0.214286 0.214286 1.0 
0.190476 0.190476 0.190476 1.0 
0.166667 0.166667 0.166667 1.0 
0.142857 0.142857 0.142857 1.0 
0.119048 0.119048 0.119048 1.0 
0.095238 0.095238 0.095238 1.0 
0.071429 0.071429 0.071429 1.0 
0.047619 0.047619 0.047619 1.0 
0.023810 0.023810 0.023810 1.0 
0.000000 0.000000 0.000000 1.0 
0.020833 0.000000 0.020833 1.0 
0.041667 0.000000 0.041667 1.0 
0.062500 0.000000 0.062500 1.0 
0.083333 0.000000 0.083333 1.0 
0.104167 0.000000 0.104167 1.0 
0.125000 0.000000 0.125000 1.0 
0.145833 0.000000 0.145833 1.0 
0.166667 0.000000 0.166667 1.0 
0.187500 0.000000 0.187500 1.0 
0.208333 0.000000 0.208333 1.0 
0.229167 0.000000 0.229167 1.0 
0.250000 0.000000 0.250000 1.0 
0.270833 0.000000 0.270833 1.0 
0.291667 0.000000 0.291667 1.0 
0.312500 0.000000 0.312500 1.0 
0.333333 0.000000 0.333333 1.0 
0.354167 0.000000 0.354167 1.0 
0.375000 0.000000 0.375000 1.0 
0.395833 0.000000 0.395833 1.0 
0.416667 0.000000 0.416667 1.0 
0.437500 0.000000 0.437500 1.0 
0.458333 0.000000 0.458333 1.0 
0.479167 0.000000 0.479167 1.0 
0.500000 0.000000 0.500000 1.0 
0.515625 0.031250 0.515625 1.0 
0.531250 0.062500 0.531250 1.0 
0.546875 0.093750 0.546875 1.0 
0.562500 0.125000 0.562500 1.0 
0.578125 0.156250 0.578125 1.0 
0.593750 0.187500 0.593750 1.0 
0.609375 0.218750 0.609375 1.0 
0.625000 0.250000 0.625000 1.0 
0.375000 0.375000 0.750000 1.0 
0.361111 0.361111 0.722222 1.0 
0.347222 0.347222 0.694444 1.0 
0.333333 0.333333 0.666667 1.0 
0.319444 0.319444 0.638889 1.0 
0.305556 0.305556 0.611111 1.0 
0.291667 0.291667 0.583333 1.0 
0.277778 0.277778 0.555556 1.0 
0.263889 0.263889 0.527778 1.0 
0.250000 0.250000 0.500000 1.0 
0.236111 0.236111 0.472222 1.0 
0.222222 0.222222 0.444444 1.0 
0.208333 0.208333 0.416667 1.0 
0.194444 0.194444 0.388889 1.0 
0.180556 0.180556 0.361111 1.0 
0.166667 0.166667 0.333333 1.0 
0.152778 0.152778 0.305556 1.0 
0.138889 0.138889 0.277778 1.0 
0.125000 0.125000 0.250000 1.0 
0.111111 0.111111 0.222222 1.0 
0.097222 0.097222 0.194444 1.0 
0.083333 0.083333 0.166667 1.0 
0.069444 0.069444 0.138889 1.0 
0.055556 0.055556 0.111111 1.0 
0.041667 0.041667 0.083333 1.0 
0.027778 0.027778 0.055556 1.0 
0.013889 0.013889 0.027778 1.0 
0.000000 0.000000 0.000000 1.0 
